c Random 5-CNF over 30 variables and 120 clauses
c Generated with `cnfgen`
c (C) 2012-2016 Massimo Lauria <lauria.massimo@gmail.com>
c https://massimolauria.github.io/cnfgen
c
c COMMAND LINE: cnfgen --output tmp-5-30-120.dimacs --output-format dimacs randkcnf 5 30 120
c
c sdimacs generated by gen-sdimacs
c
p cnf 30 120
e 16 17 18 19 20 21 22 23 24 25 26 27 28 29 30 0
r 0.37 1 2 3 4 5 6 7 8 9 10 11 12 13 14 15 0
11 -12 -18 -24 -25 0
5 9 -11 13 -24 0
-3 6 14 20 -25 0
-9 -12 13 -23 -28 0
-1 6 12 14 20 0
8 -11 -14 -16 17 0
-2 -6 -9 -20 -23 0
-4 14 18 -22 23 0
-2 -15 16 -18 24 0
6 7 9 10 28 0
-2 4 -6 -23 29 0
-8 -11 15 20 27 0
4 13 -17 20 -28 0
-6 8 -9 14 28 0
-2 4 -13 -18 24 0
-1 11 14 24 -28 0
19 21 23 28 29 0
-4 -14 18 22 27 0
8 -13 18 -19 30 0
-5 15 17 -19 -30 0
6 -8 -9 -12 -16 0
9 -10 16 -22 -23 0
-4 -15 -20 22 -23 0
-1 -4 8 -10 23 0
2 17 22 25 29 0
-9 11 -21 -22 26 0
6 -14 -15 18 21 0
-4 -6 10 20 23 0
-5 7 -12 19 28 0
3 -4 -17 -21 -29 0
9 -12 -14 17 -21 0
2 5 -7 8 24 0
-1 -4 15 -17 -22 0
-23 24 -27 28 -30 0
-5 6 -16 -25 26 0
1 8 12 -18 -26 0
7 12 17 -20 -28 0
4 -10 -11 13 19 0
-3 -6 -9 -15 -26 0
-3 5 15 17 22 0
-4 -13 23 29 30 0
-8 -12 -14 -18 25 0
-8 9 14 20 25 0
4 13 -16 -23 -29 0
-2 -12 -17 -24 26 0
-2 -3 7 -19 30 0
14 -16 -17 -18 21 0
-4 6 -14 -22 29 0
2 5 19 25 28 0
17 20 -27 -28 -30 0
2 -14 22 26 30 0
4 -7 8 -13 -24 0
3 6 10 14 18 0
-1 10 11 13 18 0
4 -6 -16 26 27 0
3 16 -17 19 28 0
-3 4 -9 18 -28 0
-9 -11 -16 27 -30 0
5 10 -19 24 27 0
-9 23 25 28 -29 0
9 16 24 25 29 0
1 -3 -5 -18 21 0
12 -15 -22 -24 26 0
16 -19 21 23 -24 0
1 -10 -13 22 27 0
1 -4 -13 -21 26 0
-4 15 -16 -27 29 0
5 -8 -9 10 -25 0
-6 -9 -15 24 30 0
1 13 -21 29 -30 0
1 -2 15 -27 28 0
7 -8 -19 -23 30 0
13 14 20 -25 -28 0
-4 14 -16 -18 20 0
-4 5 -8 -16 -26 0
-6 21 22 23 26 0
-9 -11 -17 23 -24 0
-1 -2 11 12 -16 0
5 -20 22 -23 -27 0
-8 -17 19 27 28 0
-4 -15 -19 22 26 0
1 -18 20 -23 24 0
3 5 8 13 -16 0
2 -9 12 -16 24 0
2 4 13 19 30 0
10 -12 13 -14 -22 0
9 -10 -17 -20 25 0
10 19 -21 22 28 0
7 12 19 -23 27 0
17 19 -21 22 -29 0
6 -10 19 -22 24 0
16 18 -23 -25 -28 0
-1 -3 -23 24 -27 0
-2 -11 14 25 28 0
1 -5 17 -19 26 0
-2 -11 12 -13 23 0
-5 7 -17 -20 -29 0
-2 -3 8 12 -17 0
12 -13 -20 21 30 0
1 3 9 21 29 0
1 -5 21 -25 -27 0
-2 -6 14 -20 30 0
7 -11 -19 26 -27 0
7 9 13 20 -25 0
-3 -13 -16 18 -27 0
-2 -3 -5 -12 -20 0
1 5 -14 -23 -30 0
-1 11 -14 -23 -30 0
-4 10 11 12 -22 0
1 14 -19 24 29 0
6 8 12 -16 22 0
-12 -16 21 -23 24 0
14 -15 17 -25 30 0
-6 -17 19 -26 28 0
-11 15 -17 -22 -29 0
-4 -5 9 -10 21 0
-6 17 21 25 -28 0
7 -14 20 24 -28 0
-2 7 12 16 22 0
1 12 19 -20 -21 0
